c FILE: i160-042

c SOURCE: From steinlib

c DESCRIPTION: Steinlib instance with 160 nodes and 2544 edges.

p edge 160 2544
e 1 10
e 1 11
e 1 14
e 1 15
e 1 17
e 1 21
e 1 24
e 1 31
e 1 33
e 1 36
e 1 39
e 1 41
e 1 42
e 1 45
e 1 48
e 1 50
e 1 53
e 1 60
e 1 63
e 1 70
e 1 71
e 1 77
e 1 79
e 1 81
e 1 84
e 1 89
e 1 104
e 1 108
e 1 120
e 1 121
e 1 124
e 1 125
e 1 128
e 1 129
e 1 131
e 1 134
e 1 141
e 1 146
e 1 147
e 1 150
e 1 157
e 1 158
e 2 3
e 2 13
e 2 17
e 2 21
e 2 25
e 2 26
e 2 30
e 2 58
e 2 63
e 2 70
e 2 77
e 2 80
e 2 84
e 2 86
e 2 89
e 2 92
e 2 101
e 2 104
e 2 106
e 2 111
e 2 115
e 2 116
e 2 127
e 2 128
e 2 131
e 2 137
e 2 139
e 2 140
e 2 142
e 2 143
e 2 144
e 2 154
e 2 156
e 3 4
e 3 6
e 3 11
e 3 14
e 3 18
e 3 21
e 3 25
e 3 26
e 3 31
e 3 32
e 3 36
e 3 41
e 3 43
e 3 44
e 3 47
e 3 51
e 3 52
e 3 63
e 3 72
e 3 78
e 3 82
e 3 83
e 3 87
e 3 101
e 3 106
e 3 125
e 3 126
e 3 133
e 3 140
e 3 154
e 3 155
e 3 157
e 4 13
e 4 17
e 4 30
e 4 31
e 4 35
e 4 36
e 4 38
e 4 59
e 4 63
e 4 67
e 4 82
e 4 84
e 4 90
e 4 108
e 4 111
e 4 138
e 4 139
e 4 140
e 4 142
e 4 149
e 4 152
e 4 153
e 4 160
e 5 7
e 5 12
e 5 13
e 5 18
e 5 22
e 5 23
e 5 31
e 5 32
e 5 34
e 5 35
e 5 41
e 5 43
e 5 45
e 5 47
e 5 51
e 5 54
e 5 55
e 5 61
e 5 64
e 5 75
e 5 80
e 5 85
e 5 88
e 5 89
e 5 91
e 5 101
e 5 106
e 5 109
e 5 116
e 5 120
e 5 124
e 5 138
e 5 143
e 5 153
e 5 158
e 5 160
e 6 8
e 6 9
e 6 13
e 6 15
e 6 18
e 6 20
e 6 23
e 6 27
e 6 32
e 6 33
e 6 34
e 6 35
e 6 39
e 6 42
e 6 47
e 6 52
e 6 57
e 6 59
e 6 64
e 6 66
e 6 78
e 6 89
e 6 97
e 6 99
e 6 104
e 6 106
e 6 127
e 6 130
e 6 135
e 6 136
e 6 137
e 6 142
e 6 152
e 6 158
e 7 9
e 7 10
e 7 12
e 7 15
e 7 17
e 7 18
e 7 25
e 7 28
e 7 29
e 7 33
e 7 34
e 7 35
e 7 40
e 7 44
e 7 45
e 7 46
e 7 54
e 7 55
e 7 58
e 7 66
e 7 80
e 7 82
e 7 84
e 7 86
e 7 92
e 7 95
e 7 99
e 7 101
e 7 107
e 7 108
e 7 110
e 7 120
e 7 121
e 7 122
e 7 142
e 7 147
e 7 151
e 7 154
e 7 157
e 7 159
e 8 21
e 8 25
e 8 28
e 8 33
e 8 54
e 8 55
e 8 60
e 8 70
e 8 71
e 8 78
e 8 79
e 8 83
e 8 88
e 8 89
e 8 100
e 8 101
e 8 102
e 8 116
e 8 119
e 8 122
e 8 127
e 8 139
e 8 140
e 8 154
e 9 11
e 9 13
e 9 22
e 9 23
e 9 24
e 9 31
e 9 33
e 9 35
e 9 36
e 9 45
e 9 49
e 9 59
e 9 63
e 9 65
e 9 69
e 9 72
e 9 80
e 9 88
e 9 100
e 9 110
e 9 113
e 9 118
e 9 119
e 9 120
e 9 121
e 9 124
e 9 128
e 9 129
e 9 135
e 9 137
e 9 141
e 9 145
e 9 148
e 10 14
e 10 20
e 10 21
e 10 29
e 10 30
e 10 36
e 10 44
e 10 49
e 10 53
e 10 54
e 10 55
e 10 56
e 10 59
e 10 62
e 10 64
e 10 69
e 10 77
e 10 79
e 10 81
e 10 83
e 10 99
e 10 100
e 10 103
e 10 104
e 10 109
e 10 110
e 10 112
e 10 114
e 10 126
e 10 128
e 10 132
e 10 134
e 10 138
e 10 141
e 10 142
e 10 143
e 10 149
e 11 15
e 11 16
e 11 17
e 11 33
e 11 34
e 11 38
e 11 39
e 11 41
e 11 43
e 11 65
e 11 75
e 11 78
e 11 84
e 11 86
e 11 87
e 11 88
e 11 89
e 11 101
e 11 105
e 11 106
e 11 108
e 11 117
e 11 120
e 11 121
e 11 123
e 11 125
e 11 126
e 11 128
e 11 129
e 11 130
e 11 132
e 11 147
e 11 151
e 11 156
e 12 20
e 12 26
e 12 32
e 12 34
e 12 36
e 12 47
e 12 59
e 12 60
e 12 70
e 12 74
e 12 75
e 12 79
e 12 88
e 12 89
e 12 92
e 12 133
e 12 135
e 12 147
e 13 19
e 13 36
e 13 43
e 13 51
e 13 52
e 13 61
e 13 67
e 13 68
e 13 69
e 13 70
e 13 73
e 13 83
e 13 100
e 13 106
e 13 108
e 13 109
e 13 118
e 13 138
e 13 139
e 13 141
e 13 145
e 13 147
e 13 148
e 13 150
e 13 152
e 13 157
e 14 27
e 14 28
e 14 29
e 14 30
e 14 34
e 14 37
e 14 39
e 14 41
e 14 43
e 14 49
e 14 59
e 14 60
e 14 77
e 14 82
e 14 94
e 14 105
e 14 106
e 14 111
e 14 115
e 14 117
e 14 119
e 14 123
e 14 133
e 14 143
e 14 145
e 14 148
e 14 152
e 14 157
e 15 16
e 15 17
e 15 21
e 15 28
e 15 32
e 15 36
e 15 38
e 15 39
e 15 49
e 15 52
e 15 57
e 15 61
e 15 65
e 15 67
e 15 85
e 15 86
e 15 91
e 15 94
e 15 98
e 15 102
e 15 106
e 15 111
e 15 112
e 15 114
e 15 115
e 15 121
e 15 125
e 15 129
e 15 130
e 15 131
e 15 134
e 15 136
e 15 143
e 15 144
e 15 145
e 15 146
e 15 148
e 15 156
e 15 158
e 16 20
e 16 23
e 16 24
e 16 32
e 16 34
e 16 35
e 16 41
e 16 49
e 16 57
e 16 62
e 16 68
e 16 69
e 16 73
e 16 76
e 16 77
e 16 81
e 16 82
e 16 84
e 16 89
e 16 90
e 16 93
e 16 96
e 16 101
e 16 103
e 16 109
e 16 116
e 16 129
e 16 131
e 16 132
e 16 139
e 16 153
e 16 155
e 16 158
e 17 23
e 17 24
e 17 26
e 17 27
e 17 30
e 17 31
e 17 32
e 17 41
e 17 46
e 17 47
e 17 48
e 17 51
e 17 52
e 17 53
e 17 58
e 17 67
e 17 69
e 17 74
e 17 75
e 17 76
e 17 80
e 17 83
e 17 87
e 17 95
e 17 100
e 17 101
e 17 115
e 17 119
e 17 120
e 17 127
e 17 132
e 17 133
e 17 134
e 17 136
e 17 142
e 17 154
e 18 22
e 18 25
e 18 26
e 18 28
e 18 30
e 18 34
e 18 51
e 18 53
e 18 73
e 18 80
e 18 85
e 18 88
e 18 90
e 18 93
e 18 101
e 18 113
e 18 114
e 18 118
e 18 119
e 18 122
e 18 128
e 18 145
e 18 156
e 19 23
e 19 24
e 19 31
e 19 32
e 19 37
e 19 43
e 19 47
e 19 48
e 19 54
e 19 55
e 19 77
e 19 92
e 19 96
e 19 119
e 19 123
e 19 129
e 19 131
e 19 135
e 19 141
e 19 144
e 19 145
e 19 149
e 20 29
e 20 50
e 20 55
e 20 63
e 20 66
e 20 67
e 20 69
e 20 71
e 20 76
e 20 85
e 20 95
e 20 99
e 20 102
e 20 107
e 20 108
e 20 114
e 20 115
e 20 117
e 20 120
e 20 122
e 20 123
e 20 125
e 20 130
e 20 148
e 20 151
e 20 156
e 21 34
e 21 36
e 21 37
e 21 52
e 21 53
e 21 60
e 21 61
e 21 64
e 21 67
e 21 70
e 21 72
e 21 74
e 21 76
e 21 78
e 21 79
e 21 82
e 21 83
e 21 86
e 21 99
e 21 103
e 21 112
e 21 115
e 21 117
e 21 120
e 21 122
e 21 125
e 21 133
e 21 136
e 21 138
e 21 139
e 21 140
e 21 142
e 21 154
e 22 24
e 22 27
e 22 31
e 22 34
e 22 37
e 22 46
e 22 52
e 22 59
e 22 62
e 22 66
e 22 74
e 22 88
e 22 94
e 22 102
e 22 120
e 22 125
e 22 126
e 22 132
e 22 141
e 22 142
e 22 156
e 22 158
e 23 24
e 23 30
e 23 39
e 23 44
e 23 45
e 23 51
e 23 52
e 23 56
e 23 58
e 23 61
e 23 63
e 23 65
e 23 66
e 23 85
e 23 106
e 23 114
e 23 115
e 23 117
e 23 118
e 23 124
e 23 125
e 23 126
e 23 134
e 23 138
e 23 141
e 23 142
e 23 151
e 23 158
e 23 159
e 24 34
e 24 38
e 24 43
e 24 52
e 24 56
e 24 61
e 24 68
e 24 81
e 24 83
e 24 89
e 24 90
e 24 98
e 24 99
e 24 101
e 24 104
e 24 108
e 24 119
e 24 123
e 24 137
e 24 140
e 24 142
e 24 147
e 24 149
e 24 154
e 25 26
e 25 29
e 25 51
e 25 57
e 25 71
e 25 76
e 25 84
e 25 85
e 25 89
e 25 94
e 25 98
e 25 101
e 25 103
e 25 105
e 25 109
e 25 117
e 25 128
e 25 129
e 25 136
e 25 138
e 25 141
e 25 151
e 25 154
e 25 160
e 26 27
e 26 34
e 26 37
e 26 44
e 26 49
e 26 52
e 26 57
e 26 72
e 26 74
e 26 75
e 26 76
e 26 89
e 26 91
e 26 92
e 26 93
e 26 96
e 26 98
e 26 101
e 26 106
e 26 107
e 26 111
e 26 118
e 26 120
e 26 127
e 26 131
e 26 141
e 26 143
e 26 146
e 26 148
e 26 150
e 27 32
e 27 33
e 27 38
e 27 43
e 27 45
e 27 58
e 27 62
e 27 72
e 27 84
e 27 87
e 27 92
e 27 95
e 27 99
e 27 100
e 27 101
e 27 105
e 27 106
e 27 111
e 27 113
e 27 117
e 27 119
e 27 128
e 27 149
e 27 151
e 27 153
e 28 30
e 28 34
e 28 38
e 28 46
e 28 53
e 28 54
e 28 56
e 28 68
e 28 70
e 28 79
e 28 82
e 28 89
e 28 101
e 28 103
e 28 109
e 28 110
e 28 118
e 28 128
e 28 131
e 28 133
e 28 135
e 28 136
e 28 153
e 28 154
e 28 157
e 29 33
e 29 34
e 29 46
e 29 48
e 29 49
e 29 54
e 29 58
e 29 69
e 29 92
e 29 94
e 29 95
e 29 97
e 29 98
e 29 100
e 29 102
e 29 111
e 29 117
e 29 118
e 29 119
e 29 120
e 29 148
e 29 149
e 30 40
e 30 42
e 30 43
e 30 47
e 30 51
e 30 53
e 30 56
e 30 69
e 30 77
e 30 78
e 30 81
e 30 82
e 30 86
e 30 87
e 30 94
e 30 95
e 30 108
e 30 109
e 30 110
e 30 115
e 30 119
e 30 132
e 30 133
e 30 141
e 30 150
e 30 151
e 30 155
e 31 33
e 31 34
e 31 36
e 31 43
e 31 53
e 31 56
e 31 59
e 31 62
e 31 63
e 31 64
e 31 67
e 31 68
e 31 78
e 31 88
e 31 96
e 31 100
e 31 101
e 31 113
e 31 114
e 31 125
e 31 126
e 31 127
e 31 137
e 31 138
e 31 145
e 31 148
e 31 149
e 31 156
e 31 157
e 31 160
e 32 34
e 32 42
e 32 55
e 32 58
e 32 60
e 32 65
e 32 74
e 32 75
e 32 76
e 32 77
e 32 80
e 32 83
e 32 93
e 32 98
e 32 99
e 32 102
e 32 103
e 32 107
e 32 109
e 32 118
e 32 119
e 32 121
e 32 124
e 32 126
e 32 141
e 32 156
e 32 157
e 32 160
e 33 34
e 33 35
e 33 36
e 33 43
e 33 44
e 33 51
e 33 59
e 33 63
e 33 65
e 33 81
e 33 93
e 33 96
e 33 97
e 33 98
e 33 99
e 33 106
e 33 112
e 33 115
e 33 118
e 33 125
e 33 133
e 33 136
e 33 137
e 33 143
e 33 147
e 33 156
e 33 157
e 33 158
e 34 36
e 34 38
e 34 41
e 34 43
e 34 45
e 34 46
e 34 48
e 34 60
e 34 64
e 34 66
e 34 69
e 34 70
e 34 74
e 34 81
e 34 83
e 34 84
e 34 86
e 34 99
e 34 105
e 34 107
e 34 110
e 34 112
e 34 121
e 34 122
e 34 123
e 34 128
e 34 129
e 34 133
e 34 134
e 34 148
e 34 149
e 34 150
e 34 152
e 34 158
e 35 38
e 35 49
e 35 56
e 35 61
e 35 85
e 35 103
e 35 104
e 35 105
e 35 106
e 35 107
e 35 111
e 35 113
e 35 119
e 35 121
e 35 128
e 35 133
e 35 137
e 35 144
e 35 154
e 35 156
e 35 159
e 36 39
e 36 42
e 36 51
e 36 56
e 36 64
e 36 70
e 36 77
e 36 81
e 36 87
e 36 91
e 36 95
e 36 98
e 36 99
e 36 100
e 36 103
e 36 110
e 36 118
e 36 122
e 36 126
e 36 131
e 36 140
e 36 145
e 36 148
e 36 152
e 36 153
e 37 38
e 37 44
e 37 51
e 37 52
e 37 56
e 37 66
e 37 69
e 37 74
e 37 75
e 37 92
e 37 95
e 37 103
e 37 104
e 37 106
e 37 111
e 37 115
e 37 117
e 37 118
e 37 122
e 37 123
e 37 126
e 37 131
e 37 136
e 37 139
e 37 143
e 37 155
e 37 157
e 38 42
e 38 50
e 38 54
e 38 55
e 38 70
e 38 71
e 38 81
e 38 89
e 38 92
e 38 98
e 38 109
e 38 111
e 38 114
e 38 115
e 38 116
e 38 120
e 38 123
e 38 128
e 38 135
e 38 137
e 38 143
e 38 146
e 38 148
e 38 150
e 39 49
e 39 50
e 39 55
e 39 60
e 39 65
e 39 69
e 39 75
e 39 76
e 39 77
e 39 81
e 39 83
e 39 89
e 39 93
e 39 97
e 39 99
e 39 100
e 39 104
e 39 106
e 39 109
e 39 111
e 39 115
e 39 117
e 39 134
e 39 139
e 39 144
e 39 145
e 40 53
e 40 58
e 40 62
e 40 65
e 40 66
e 40 69
e 40 75
e 40 77
e 40 80
e 40 87
e 40 93
e 40 102
e 40 109
e 40 110
e 40 111
e 40 117
e 40 120
e 40 124
e 40 125
e 40 130
e 40 131
e 40 135
e 40 138
e 40 147
e 40 153
e 40 157
e 41 44
e 41 52
e 41 53
e 41 55
e 41 61
e 41 66
e 41 71
e 41 76
e 41 78
e 41 79
e 41 87
e 41 88
e 41 95
e 41 97
e 41 112
e 41 116
e 41 127
e 41 129
e 41 133
e 41 134
e 41 137
e 41 145
e 41 146
e 41 154
e 41 155
e 41 158
e 42 45
e 42 49
e 42 53
e 42 55
e 42 64
e 42 72
e 42 75
e 42 82
e 42 94
e 42 96
e 42 98
e 42 100
e 42 103
e 42 105
e 42 106
e 42 114
e 42 123
e 42 126
e 42 130
e 42 131
e 42 137
e 42 150
e 42 154
e 42 156
e 43 49
e 43 60
e 43 64
e 43 71
e 43 74
e 43 77
e 43 89
e 43 92
e 43 95
e 43 96
e 43 100
e 43 107
e 43 110
e 43 115
e 43 116
e 43 125
e 43 136
e 43 141
e 43 143
e 43 154
e 43 155
e 43 159
e 43 160
e 44 51
e 44 52
e 44 55
e 44 81
e 44 85
e 44 87
e 44 90
e 44 96
e 44 100
e 44 105
e 44 106
e 44 112
e 44 115
e 44 120
e 44 128
e 44 130
e 44 138
e 44 142
e 44 143
e 44 144
e 44 145
e 44 146
e 44 150
e 44 159
e 45 56
e 45 57
e 45 59
e 45 60
e 45 67
e 45 88
e 45 90
e 45 92
e 45 99
e 45 113
e 45 121
e 45 123
e 45 129
e 45 130
e 45 132
e 45 133
e 45 137
e 45 144
e 45 152
e 46 52
e 46 54
e 46 61
e 46 62
e 46 64
e 46 65
e 46 71
e 46 108
e 46 111
e 46 118
e 46 119
e 46 125
e 46 145
e 46 148
e 46 156
e 47 49
e 47 50
e 47 62
e 47 70
e 47 77
e 47 94
e 47 97
e 47 98
e 47 102
e 47 103
e 47 104
e 47 108
e 47 111
e 47 112
e 47 120
e 47 122
e 47 128
e 47 130
e 47 132
e 47 136
e 47 141
e 47 146
e 47 151
e 47 156
e 47 157
e 47 159
e 48 49
e 48 62
e 48 67
e 48 75
e 48 76
e 48 78
e 48 95
e 48 101
e 48 116
e 48 120
e 48 122
e 48 125
e 48 130
e 48 131
e 48 149
e 48 157
e 49 53
e 49 59
e 49 62
e 49 68
e 49 76
e 49 79
e 49 90
e 49 91
e 49 102
e 49 104
e 49 115
e 49 118
e 49 120
e 49 125
e 49 126
e 49 131
e 49 154
e 49 155
e 49 159
e 50 53
e 50 60
e 50 63
e 50 68
e 50 69
e 50 70
e 50 75
e 50 77
e 50 78
e 50 80
e 50 89
e 50 97
e 50 102
e 50 106
e 50 107
e 50 110
e 50 113
e 50 117
e 50 120
e 50 121
e 50 133
e 50 139
e 50 140
e 50 141
e 50 142
e 50 146
e 50 148
e 50 152
e 51 52
e 51 54
e 51 56
e 51 62
e 51 82
e 51 97
e 51 98
e 51 103
e 51 111
e 51 113
e 51 115
e 51 118
e 51 122
e 51 124
e 51 127
e 51 132
e 51 147
e 51 148
e 51 152
e 51 155
e 51 157
e 51 160
e 52 57
e 52 64
e 52 74
e 52 79
e 52 80
e 52 83
e 52 84
e 52 87
e 52 99
e 52 102
e 52 105
e 52 112
e 52 116
e 52 123
e 52 130
e 52 132
e 52 133
e 52 135
e 52 140
e 52 152
e 52 154
e 52 157
e 52 160
e 53 65
e 53 74
e 53 77
e 53 80
e 53 84
e 53 91
e 53 101
e 53 113
e 53 117
e 53 119
e 53 127
e 53 128
e 53 131
e 53 132
e 53 134
e 53 135
e 53 136
e 53 137
e 53 138
e 53 144
e 53 145
e 53 151
e 54 68
e 54 73
e 54 77
e 54 81
e 54 83
e 54 93
e 54 94
e 54 96
e 54 98
e 54 103
e 54 108
e 54 109
e 54 112
e 54 113
e 54 114
e 54 116
e 54 120
e 54 121
e 54 129
e 54 131
e 54 133
e 54 140
e 54 142
e 54 146
e 54 156
e 54 157
e 54 159
e 55 65
e 55 66
e 55 80
e 55 81
e 55 99
e 55 101
e 55 106
e 55 115
e 55 116
e 55 119
e 55 120
e 55 121
e 55 130
e 55 132
e 55 142
e 55 145
e 56 62
e 56 65
e 56 68
e 56 72
e 56 74
e 56 79
e 56 82
e 56 83
e 56 91
e 56 93
e 56 95
e 56 100
e 56 101
e 56 105
e 56 109
e 56 121
e 56 137
e 56 138
e 56 142
e 56 147
e 56 151
e 56 156
e 57 59
e 57 62
e 57 65
e 57 67
e 57 76
e 57 78
e 57 84
e 57 90
e 57 93
e 57 98
e 57 100
e 57 102
e 57 130
e 57 133
e 57 145
e 57 148
e 57 151
e 57 155
e 58 65
e 58 69
e 58 72
e 58 78
e 58 81
e 58 87
e 58 93
e 58 97
e 58 98
e 58 118
e 58 125
e 58 136
e 58 137
e 58 138
e 58 140
e 58 145
e 58 146
e 59 60
e 59 63
e 59 64
e 59 65
e 59 68
e 59 76
e 59 79
e 59 81
e 59 89
e 59 90
e 59 97
e 59 98
e 59 99
e 59 103
e 59 104
e 59 122
e 59 148
e 59 151
e 59 152
e 59 156
e 59 160
e 60 81
e 60 82
e 60 84
e 60 86
e 60 90
e 60 92
e 60 94
e 60 103
e 60 143
e 60 145
e 60 147
e 60 148
e 60 154
e 60 155
e 60 157
e 61 69
e 61 72
e 61 74
e 61 75
e 61 81
e 61 82
e 61 90
e 61 94
e 61 96
e 61 97
e 61 99
e 61 104
e 61 114
e 61 123
e 61 127
e 61 131
e 61 133
e 61 134
e 61 154
e 61 155
e 62 66
e 62 67
e 62 70
e 62 74
e 62 88
e 62 95
e 62 104
e 62 106
e 62 110
e 62 111
e 62 120
e 62 122
e 62 123
e 62 135
e 62 155
e 63 69
e 63 70
e 63 81
e 63 83
e 63 85
e 63 87
e 63 93
e 63 98
e 63 120
e 63 123
e 63 124
e 63 128
e 63 135
e 63 136
e 63 138
e 63 150
e 63 156
e 63 159
e 64 66
e 64 83
e 64 85
e 64 87
e 64 89
e 64 94
e 64 102
e 64 104
e 64 105
e 64 112
e 64 114
e 64 130
e 64 131
e 64 134
e 64 137
e 64 140
e 64 141
e 64 143
e 64 160
e 65 70
e 65 72
e 65 73
e 65 86
e 65 91
e 65 108
e 65 112
e 65 118
e 65 119
e 65 120
e 65 121
e 65 126
e 65 131
e 65 133
e 65 140
e 65 141
e 65 148
e 65 150
e 65 152
e 65 155
e 65 156
e 66 69
e 66 89
e 66 90
e 66 91
e 66 104
e 66 119
e 66 122
e 66 125
e 66 129
e 66 138
e 66 147
e 66 148
e 66 153
e 66 154
e 66 158
e 67 74
e 67 76
e 67 85
e 67 94
e 67 104
e 67 111
e 67 115
e 67 116
e 67 118
e 67 121
e 67 138
e 67 139
e 67 141
e 67 152
e 67 157
e 67 158
e 68 81
e 68 88
e 68 98
e 68 103
e 68 110
e 68 116
e 68 127
e 68 136
e 68 144
e 68 146
e 68 151
e 68 152
e 68 159
e 69 73
e 69 92
e 69 94
e 69 99
e 69 100
e 69 102
e 69 109
e 69 115
e 69 135
e 69 157
e 69 160
e 70 73
e 70 77
e 70 79
e 70 83
e 70 99
e 70 102
e 70 111
e 70 113
e 70 117
e 70 120
e 70 130
e 70 131
e 71 72
e 71 73
e 71 83
e 71 88
e 71 97
e 71 103
e 71 107
e 71 111
e 71 112
e 71 118
e 71 123
e 71 126
e 71 131
e 71 136
e 71 139
e 71 140
e 71 141
e 71 142
e 71 143
e 71 154
e 72 77
e 72 81
e 72 82
e 72 88
e 72 90
e 72 92
e 72 100
e 72 128
e 72 129
e 72 133
e 72 135
e 72 142
e 72 145
e 72 147
e 72 160
e 73 78
e 73 79
e 73 80
e 73 93
e 73 96
e 73 113
e 73 121
e 73 124
e 73 125
e 73 128
e 73 138
e 73 139
e 73 142
e 73 145
e 73 151
e 73 154
e 73 155
e 74 77
e 74 87
e 74 91
e 74 94
e 74 100
e 74 104
e 74 115
e 74 116
e 74 118
e 74 120
e 74 127
e 74 130
e 74 137
e 74 138
e 74 141
e 74 143
e 74 146
e 74 147
e 74 159
e 75 76
e 75 86
e 75 94
e 75 98
e 75 99
e 75 100
e 75 103
e 75 107
e 75 119
e 75 122
e 75 123
e 75 127
e 75 128
e 75 129
e 75 131
e 75 138
e 75 142
e 75 149
e 75 157
e 76 77
e 76 81
e 76 84
e 76 86
e 76 87
e 76 89
e 76 93
e 76 96
e 76 100
e 76 106
e 76 125
e 76 132
e 76 134
e 76 141
e 76 149
e 76 158
e 76 160
e 77 78
e 77 79
e 77 85
e 77 88
e 77 92
e 77 93
e 77 96
e 77 100
e 77 105
e 77 109
e 77 119
e 77 124
e 77 131
e 77 133
e 77 149
e 77 151
e 78 79
e 78 95
e 78 99
e 78 100
e 78 107
e 78 112
e 78 127
e 78 139
e 78 145
e 78 149
e 78 154
e 78 155
e 78 159
e 79 82
e 79 83
e 79 104
e 79 105
e 79 106
e 79 111
e 79 113
e 79 117
e 79 120
e 79 124
e 79 125
e 79 128
e 79 142
e 79 143
e 79 151
e 79 157
e 79 158
e 79 160
e 80 81
e 80 83
e 80 85
e 80 88
e 80 96
e 80 97
e 80 102
e 80 108
e 80 109
e 80 111
e 80 114
e 80 116
e 80 117
e 80 119
e 80 120
e 80 122
e 80 137
e 80 138
e 80 140
e 80 143
e 80 145
e 80 147
e 80 156
e 81 83
e 81 86
e 81 96
e 81 105
e 81 108
e 81 111
e 81 112
e 81 113
e 81 118
e 81 147
e 81 159
e 82 91
e 82 101
e 82 107
e 82 111
e 82 112
e 82 113
e 82 114
e 82 127
e 82 134
e 82 136
e 82 145
e 83 84
e 83 91
e 83 101
e 83 103
e 83 104
e 83 105
e 83 106
e 83 107
e 83 121
e 83 123
e 83 137
e 83 138
e 83 150
e 83 155
e 83 157
e 84 88
e 84 91
e 84 94
e 84 96
e 84 108
e 84 112
e 84 113
e 84 114
e 84 117
e 84 123
e 84 128
e 84 132
e 84 138
e 84 144
e 84 147
e 84 151
e 85 92
e 85 95
e 85 102
e 85 103
e 85 107
e 85 110
e 85 119
e 85 122
e 85 126
e 85 127
e 85 134
e 85 144
e 85 151
e 85 155
e 85 158
e 85 159
e 85 160
e 86 100
e 86 105
e 86 112
e 86 116
e 86 125
e 86 135
e 86 139
e 86 142
e 86 145
e 86 160
e 87 89
e 87 94
e 87 97
e 87 100
e 87 107
e 87 110
e 87 112
e 87 113
e 87 115
e 87 122
e 87 124
e 87 130
e 87 134
e 87 139
e 87 140
e 87 141
e 87 142
e 87 146
e 87 147
e 87 148
e 87 150
e 88 89
e 88 92
e 88 107
e 88 108
e 88 109
e 88 117
e 88 125
e 88 127
e 88 135
e 88 151
e 88 154
e 88 155
e 88 156
e 88 157
e 88 160
e 89 91
e 89 93
e 89 104
e 89 106
e 89 110
e 89 113
e 89 119
e 89 127
e 89 134
e 89 136
e 89 137
e 89 139
e 89 141
e 89 152
e 89 156
e 90 91
e 90 94
e 90 98
e 90 99
e 90 101
e 90 102
e 90 111
e 90 116
e 90 126
e 90 127
e 90 150
e 90 151
e 90 154
e 90 156
e 91 94
e 91 95
e 91 99
e 91 100
e 91 101
e 91 102
e 91 105
e 91 108
e 91 113
e 91 116
e 91 119
e 91 124
e 91 125
e 91 128
e 91 129
e 91 130
e 91 132
e 91 137
e 91 141
e 91 145
e 91 153
e 92 99
e 92 106
e 92 111
e 92 113
e 92 126
e 92 128
e 92 146
e 92 151
e 92 152
e 92 153
e 92 154
e 92 160
e 93 97
e 93 105
e 93 120
e 93 126
e 93 128
e 93 129
e 93 131
e 93 150
e 93 157
e 94 101
e 94 107
e 94 108
e 94 114
e 94 119
e 94 120
e 94 124
e 94 129
e 94 132
e 94 133
e 94 136
e 94 141
e 94 152
e 94 153
e 94 157
e 94 158
e 95 97
e 95 102
e 95 114
e 95 117
e 95 118
e 95 123
e 95 124
e 95 127
e 95 137
e 95 140
e 95 149
e 95 158
e 95 159
e 96 102
e 96 106
e 96 112
e 96 118
e 96 122
e 96 126
e 96 129
e 96 132
e 96 133
e 96 139
e 96 150
e 96 154
e 96 158
e 97 99
e 97 104
e 97 108
e 97 109
e 97 112
e 97 116
e 97 117
e 97 129
e 97 132
e 97 134
e 97 136
e 97 142
e 97 145
e 97 149
e 97 153
e 97 155
e 97 160
e 98 104
e 98 108
e 98 115
e 98 122
e 98 128
e 98 129
e 98 141
e 98 149
e 98 154
e 98 155
e 98 159
e 99 101
e 99 105
e 99 111
e 99 112
e 99 122
e 99 124
e 99 129
e 99 130
e 99 135
e 99 138
e 99 160
e 100 101
e 100 105
e 100 127
e 100 133
e 100 140
e 100 144
e 100 146
e 100 150
e 100 152
e 100 156
e 101 104
e 101 106
e 101 109
e 101 110
e 101 111
e 101 113
e 101 125
e 101 127
e 101 132
e 101 136
e 101 137
e 101 140
e 101 146
e 101 147
e 101 152
e 101 153
e 101 157
e 101 160
e 102 105
e 102 106
e 102 108
e 102 135
e 102 140
e 102 146
e 102 153
e 102 156
e 102 158
e 103 104
e 103 107
e 103 109
e 103 111
e 103 113
e 103 115
e 103 117
e 103 122
e 103 130
e 103 131
e 103 139
e 103 140
e 103 142
e 103 146
e 103 147
e 103 148
e 103 153
e 103 159
e 104 106
e 104 109
e 104 113
e 104 114
e 104 115
e 104 130
e 104 138
e 104 140
e 104 141
e 104 148
e 104 155
e 104 160
e 105 106
e 105 107
e 105 116
e 105 117
e 105 120
e 105 121
e 105 125
e 105 134
e 105 140
e 105 146
e 105 150
e 105 159
e 105 160
e 106 116
e 106 120
e 106 122
e 106 140
e 106 142
e 106 145
e 106 149
e 107 109
e 107 116
e 107 123
e 107 149
e 107 156
e 108 120
e 108 127
e 108 137
e 108 140
e 108 145
e 108 160
e 109 111
e 109 114
e 109 131
e 109 136
e 109 144
e 109 150
e 109 155
e 110 111
e 110 115
e 110 136
e 110 141
e 110 145
e 110 158
e 110 160
e 111 114
e 111 115
e 111 116
e 111 117
e 111 120
e 111 123
e 111 131
e 111 135
e 111 138
e 111 145
e 111 147
e 111 149
e 111 153
e 111 154
e 111 156
e 111 158
e 111 159
e 112 115
e 112 117
e 112 119
e 112 123
e 112 125
e 112 126
e 112 130
e 112 134
e 112 135
e 112 136
e 112 138
e 112 141
e 113 123
e 113 125
e 113 130
e 113 134
e 113 139
e 113 148
e 113 155
e 113 156
e 113 158
e 113 160
e 114 115
e 114 117
e 114 118
e 114 119
e 114 129
e 114 135
e 114 137
e 114 138
e 114 144
e 114 147
e 114 149
e 114 156
e 114 160
e 115 117
e 115 122
e 115 129
e 115 144
e 115 145
e 115 147
e 115 154
e 116 117
e 116 118
e 116 120
e 116 121
e 116 123
e 116 129
e 116 132
e 116 133
e 116 135
e 116 139
e 116 140
e 116 141
e 116 142
e 116 147
e 116 152
e 116 154
e 116 159
e 117 124
e 117 125
e 117 126
e 117 136
e 117 146
e 118 120
e 118 125
e 118 157
e 119 133
e 119 134
e 119 137
e 119 140
e 119 144
e 119 147
e 119 150
e 119 153
e 119 154
e 119 157
e 120 124
e 120 125
e 120 133
e 120 139
e 120 146
e 120 150
e 120 152
e 121 137
e 121 143
e 121 145
e 121 156
e 122 136
e 122 140
e 122 155
e 123 126
e 123 133
e 123 135
e 123 138
e 123 139
e 123 142
e 123 147
e 123 154
e 124 129
e 124 131
e 124 138
e 124 139
e 124 157
e 125 127
e 125 131
e 125 133
e 125 141
e 125 146
e 125 149
e 125 152
e 126 127
e 126 130
e 126 131
e 126 133
e 126 154
e 127 136
e 127 138
e 127 141
e 127 146
e 127 154
e 127 156
e 127 159
e 127 160
e 128 130
e 128 142
e 128 143
e 128 145
e 128 155
e 128 159
e 129 130
e 129 132
e 129 134
e 129 136
e 129 137
e 129 142
e 129 154
e 130 138
e 130 139
e 130 142
e 130 143
e 130 145
e 130 147
e 130 150
e 130 154
e 131 137
e 131 139
e 131 140
e 131 141
e 131 144
e 131 150
e 131 155
e 131 157
e 131 158
e 131 159
e 132 141
e 132 146
e 132 149
e 133 134
e 133 138
e 133 145
e 133 158
e 133 159
e 133 160
e 134 142
e 134 147
e 134 148
e 134 149
e 134 150
e 134 151
e 134 160
e 135 137
e 135 140
e 135 141
e 135 156
e 135 157
e 135 158
e 136 146
e 136 150
e 136 154
e 137 140
e 137 141
e 137 145
e 137 151
e 137 152
e 138 139
e 138 142
e 138 143
e 138 145
e 138 146
e 138 147
e 138 149
e 138 150
e 138 157
e 139 144
e 139 146
e 139 147
e 139 150
e 139 151
e 140 144
e 140 148
e 140 151
e 140 154
e 140 158
e 141 142
e 141 145
e 141 148
e 141 159
e 141 160
e 142 145
e 142 147
e 142 148
e 142 155
e 142 158
e 142 159
e 143 152
e 144 151
e 144 152
e 144 157
e 144 159
e 145 152
e 145 153
e 146 148
e 147 148
e 148 152
e 148 156
e 149 152
e 149 157
e 149 160
e 150 152
e 150 154
e 150 158
e 150 159
e 151 152
e 152 153
e 154 158
e 155 157
e 158 159
